NAME : XML100_2275_24
DIMENSION : 101
NB_CLUSTERS : 8
CLUSTERING_ALG : KMeans
CLUSTERING_PARAMS : k(7)
CLUSTERS
1 0
2 7 10 19 26 37 47 53 57 61 68 73 75 84 86
3 3 14 17 20 27 28 29 33 36 42 52 62 69 81 83 92 97
4 1 13 15 18 31 49 51 56 58 59 71 80 85 89 94 96 98
5 9 11 12 24 30 40 41 45 65 70 76 78 87 100
6 2 6 8 22 25 32 35 38 39 66 67 74 88 90 91 95 99
7 4 48 60 64
8 5 16 21 23 34 43 44 46 50 54 55 63 72 77 79 82 93
EOF